p cnf 430 1488
-191 173 0
-191 29 0
-191 -60 0
-191 -177 0
-191 92 0
191 -173 -29 60 177 -92 0
-192 29 0
-192 -176 0
-192 146 0
-192 -38 0
-192 -63 0
192 -29 176 -146 38 63 0
-193 -33 0
-193 -170 0
-193 -140 0
-193 137 0
-193 43 0
193 33 170 140 -137 -43 0
-194 141 0
-194 -120 0
-194 172 0
-194 -72 0
-194 51 0
194 -141 120 -172 72 -51 0
-195 18 0
-195 -130 0
-195 149 0
-195 -74 0
-195 -21 0
195 -18 130 -149 74 21 0
191 192 193 194 195 0
-196 -190 0
-196 167 0
-196 177 0
-196 -117 0
-196 142 0
196 190 -167 -177 117 -142 0
-197 76 0
-197 -179 0
-197 58 0
-197 -54 0
-197 174 0
197 -76 179 -58 54 -174 0
-198 -115 0
-198 100 0
-198 -51 0
-198 -168 0
-198 -143 0
198 115 -100 51 168 143 0
-199 -112 0
-199 -106 0
-199 172 0
-199 30 0
-199 27 0
199 112 106 -172 -30 -27 0
-200 75 0
-200 37 0
-200 145 0
-200 -39 0
-200 -131 0
200 -75 -37 -145 39 131 0
196 197 198 199 200 0
-201 183 0
-201 -128 0
-201 -174 0
-201 -168 0
-201 -137 0
201 -183 128 174 168 137 0
-202 185 0
-202 -56 0
-202 162 0
-202 171 0
-202 19 0
202 -185 56 -162 -171 -19 0
-203 -18 0
-203 16 0
-203 -183 0
-203 -174 0
-203 -138 0
203 18 -16 183 174 138 0
-204 50 0
-204 -22 0
-204 -12 0
-204 181 0
-204 84 0
204 -50 22 12 -181 -84 0
-205 -7 0
-205 -133 0
-205 71 0
-205 13 0
-205 -175 0
205 7 133 -71 -13 175 0
201 202 203 204 205 0
-206 55 0
-206 -36 0
-206 -169 0
-206 40 0
-206 89 0
206 -55 36 169 -40 -89 0
-207 -136 0
-207 -72 0
-207 -19 0
-207 75 0
-207 -114 0
207 136 72 19 -75 114 0
-208 -182 0
-208 -21 0
-208 -127 0
-208 -187 0
-208 177 0
208 182 21 127 187 -177 0
-209 -23 0
-209 147 0
-209 133 0
-209 154 0
-209 173 0
209 23 -147 -133 -154 -173 0
-210 -32 0
-210 54 0
-210 140 0
-210 13 0
-210 -26 0
210 32 -54 -140 -13 26 0
206 207 208 209 210 0
-211 -7 0
-211 -172 0
-211 -139 0
-211 169 0
-211 -77 0
211 7 172 139 -169 77 0
-212 181 0
-212 131 0
-212 -171 0
-212 39 0
-212 -101 0
212 -181 -131 171 -39 101 0
-213 53 0
-213 172 0
-213 64 0
-213 -151 0
-213 -44 0
213 -53 -172 -64 151 44 0
-214 147 0
-214 -34 0
-214 -43 0
-214 -46 0
-214 155 0
214 -147 34 43 46 -155 0
-215 66 0
-215 -44 0
-215 142 0
-215 -23 0
-215 124 0
215 -66 44 -142 23 -124 0
211 212 213 214 215 0
-216 -30 0
-216 86 0
-216 61 0
-216 127 0
-216 108 0
216 30 -86 -61 -127 -108 0
-217 -131 0
-217 188 0
-217 159 0
-217 88 0
-217 -98 0
217 131 -188 -159 -88 98 0
-218 -31 0
-218 80 0
-218 130 0
-218 -111 0
-218 -17 0
218 31 -80 -130 111 17 0
-219 117 0
-219 -187 0
-219 116 0
-219 -18 0
-219 -156 0
219 -117 187 -116 18 156 0
-220 136 0
-220 -119 0
-220 106 0
-220 66 0
-220 171 0
220 -136 119 -106 -66 -171 0
216 217 218 219 220 0
-221 -131 0
-221 16 0
-221 -106 0
-221 152 0
-221 -109 0
221 131 -16 106 -152 109 0
-222 102 0
-222 27 0
-222 -18 0
-222 -11 0
-222 129 0
222 -102 -27 18 11 -129 0
-223 178 0
-223 -105 0
-223 123 0
-223 -152 0
-223 -54 0
223 -178 105 -123 152 54 0
-224 160 0
-224 52 0
-224 -157 0
-224 -188 0
-224 60 0
224 -160 -52 157 188 -60 0
-225 55 0
-225 -117 0
-225 56 0
-225 112 0
-225 99 0
225 -55 117 -56 -112 -99 0
221 222 223 224 225 0
-226 161 0
-226 -141 0
-226 -55 0
-226 30 0
-226 -123 0
226 -161 141 55 -30 123 0
-227 43 0
-227 160 0
-227 -90 0
-227 -48 0
-227 -180 0
227 -43 -160 90 48 180 0
-228 11 0
-228 74 0
-228 -67 0
-228 -128 0
-228 -19 0
228 -11 -74 67 128 19 0
-229 -129 0
-229 -69 0
-229 24 0
-229 106 0
-229 -108 0
229 129 69 -24 -106 108 0
-230 11 0
-230 69 0
-230 -175 0
-230 42 0
-230 86 0
230 -11 -69 175 -42 -86 0
226 227 228 229 230 0
-231 75 0
-231 38 0
-231 153 0
-231 157 0
-231 164 0
231 -75 -38 -153 -157 -164 0
-232 162 0
-232 -147 0
-232 45 0
-232 -59 0
-232 -82 0
232 -162 147 -45 59 82 0
-233 -61 0
-233 -44 0
-233 -111 0
-233 77 0
-233 185 0
233 61 44 111 -77 -185 0
-234 -25 0
-234 -115 0
-234 -65 0
-234 -177 0
-234 126 0
234 25 115 65 177 -126 0
-235 155 0
-235 -39 0
-235 -40 0
-235 88 0
-235 162 0
235 -155 39 40 -88 -162 0
231 232 233 234 235 0
-236 -2 0
-236 15 0
-236 -91 0
-236 -5 0
-236 138 0
236 2 -15 91 5 -138 0
-237 77 0
-237 -55 0
-237 -52 0
-237 112 0
-237 -109 0
237 -77 55 52 -112 109 0
-238 28 0
-238 162 0
-238 -130 0
-238 -186 0
-238 -180 0
238 -28 -162 130 186 180 0
-239 81 0
-239 42 0
-239 68 0
-239 -80 0
-239 -11 0
239 -81 -42 -68 80 11 0
-240 -179 0
-240 144 0
-240 63 0
-240 14 0
-240 34 0
240 179 -144 -63 -14 -34 0
236 237 238 239 240 0
-241 -38 0
-241 -46 0
-241 -140 0
-241 -154 0
-241 -100 0
241 38 46 140 154 100 0
-242 -12 0
-242 -171 0
-242 47 0
-242 -143 0
-242 -154 0
242 12 171 -47 143 154 0
-243 -130 0
-243 -163 0
-243 -149 0
-243 -57 0
-243 -83 0
243 130 163 149 57 83 0
-244 143 0
-244 117 0
-244 88 0
-244 33 0
-244 59 0
244 -143 -117 -88 -33 -59 0
-245 33 0
-245 -171 0
-245 -71 0
-245 -15 0
-245 -181 0
245 -33 171 71 15 181 0
241 242 243 244 245 0
-246 -117 0
-246 -101 0
-246 -94 0
-246 99 0
-246 23 0
246 117 101 94 -99 -23 0
-247 19 0
-247 89 0
-247 178 0
-247 80 0
-247 -16 0
247 -19 -89 -178 -80 16 0
-248 100 0
-248 181 0
-248 -142 0
-248 93 0
-248 111 0
248 -100 -181 142 -93 -111 0
-249 146 0
-249 148 0
-249 66 0
-249 123 0
-249 -165 0
249 -146 -148 -66 -123 165 0
-250 124 0
-250 -138 0
-250 -22 0
-250 -83 0
-250 151 0
250 -124 138 22 83 -151 0
246 247 248 249 250 0
-251 -173 0
-251 -67 0
-251 -35 0
-251 -38 0
-251 109 0
251 173 67 35 38 -109 0
-252 -147 0
-252 -100 0
-252 121 0
-252 -89 0
-252 -68 0
252 147 100 -121 89 68 0
-253 -117 0
-253 20 0
-253 173 0
-253 -41 0
-253 121 0
253 117 -20 -173 41 -121 0
-254 186 0
-254 -8 0
-254 -170 0
-254 -33 0
-254 -32 0
254 -186 8 170 33 32 0
-255 118 0
-255 -176 0
-255 80 0
-255 63 0
-255 -83 0
255 -118 176 -80 -63 83 0
251 252 253 254 255 0
-256 -186 0
-256 -143 0
-256 -30 0
-256 142 0
-256 84 0
256 186 143 30 -142 -84 0
-257 -32 0
-257 -115 0
-257 -18 0
-257 -36 0
-257 -40 0
257 32 115 18 36 40 0
-258 -171 0
-258 -22 0
-258 -96 0
-258 155 0
-258 36 0
258 171 22 96 -155 -36 0
-259 -88 0
-259 -43 0
-259 -51 0
-259 137 0
-259 -129 0
259 88 43 51 -137 129 0
-260 112 0
-260 -103 0
-260 42 0
-260 109 0
-260 113 0
260 -112 103 -42 -109 -113 0
256 257 258 259 260 0
-261 71 0
-261 185 0
-261 43 0
-261 79 0
-261 -76 0
261 -71 -185 -43 -79 76 0
-262 -100 0
-262 102 0
-262 -128 0
-262 -27 0
-262 42 0
262 100 -102 128 27 -42 0
-263 -101 0
-263 -95 0
-263 123 0
-263 88 0
-263 -64 0
263 101 95 -123 -88 64 0
-264 63 0
-264 -182 0
-264 -47 0
-264 -45 0
-264 13 0
264 -63 182 47 45 -13 0
-265 -161 0
-265 28 0
-265 -14 0
-265 -159 0
-265 157 0
265 161 -28 14 159 -157 0
261 262 263 264 265 0
-266 112 0
-266 84 0
-266 -7 0
-266 -140 0
-266 -104 0
266 -112 -84 7 140 104 0
-267 -21 0
-267 -34 0
-267 79 0
-267 -130 0
-267 -66 0
267 21 34 -79 130 66 0
-268 186 0
-268 -84 0
-268 -21 0
-268 151 0
-268 -49 0
268 -186 84 21 -151 49 0
-269 -144 0
-269 116 0
-269 167 0
-269 -138 0
-269 -133 0
269 144 -116 -167 138 133 0
-270 -184 0
-270 -126 0
-270 -180 0
-270 172 0
-270 45 0
270 184 126 180 -172 -45 0
266 267 268 269 270 0
-271 -162 0
-271 -95 0
-271 -15 0
-271 -170 0
-271 -183 0
271 162 95 15 170 183 0
-272 -15 0
-272 20 0
-272 51 0
-272 53 0
-272 172 0
272 15 -20 -51 -53 -172 0
-273 -181 0
-273 -32 0
-273 155 0
-273 -140 0
-273 -3 0
273 181 32 -155 140 3 0
-274 155 0
-274 27 0
-274 24 0
-274 171 0
-274 -184 0
274 -155 -27 -24 -171 184 0
-275 -64 0
-275 182 0
-275 27 0
-275 184 0
-275 164 0
275 64 -182 -27 -184 -164 0
271 272 273 274 275 0
-276 -105 0
-276 121 0
-276 42 0
-276 24 0
-276 174 0
276 105 -121 -42 -24 -174 0
-277 -22 0
-277 165 0
-277 138 0
-277 27 0
-277 -151 0
277 22 -165 -138 -27 151 0
-278 94 0
-278 48 0
-278 -108 0
-278 134 0
-278 128 0
278 -94 -48 108 -134 -128 0
-279 26 0
-279 184 0
-279 -105 0
-279 165 0
-279 18 0
279 -26 -184 105 -165 -18 0
-280 164 0
-280 -14 0
-280 127 0
-280 -5 0
-280 -2 0
280 -164 14 -127 5 2 0
276 277 278 279 280 0
-281 54 0
-281 88 0
-281 65 0
-281 71 0
-281 144 0
281 -54 -88 -65 -71 -144 0
-282 -9 0
-282 -55 0
-282 -25 0
-282 168 0
-282 -50 0
282 9 55 25 -168 50 0
-283 -188 0
-283 -159 0
-283 46 0
-283 -137 0
-283 -175 0
283 188 159 -46 137 175 0
-284 -1 0
-284 169 0
-284 -8 0
-284 182 0
-284 10 0
284 1 -169 8 -182 -10 0
-285 -38 0
-285 26 0
-285 -89 0
-285 178 0
-285 91 0
285 38 -26 89 -178 -91 0
281 282 283 284 285 0
-286 -100 0
-286 -4 0
-286 89 0
-286 -115 0
-286 -114 0
286 100 4 -89 115 114 0
-287 102 0
-287 -177 0
-287 115 0
-287 14 0
-287 36 0
287 -102 177 -115 -14 -36 0
-288 -50 0
-288 -177 0
-288 47 0
-288 12 0
-288 -66 0
288 50 177 -47 -12 66 0
-289 88 0
-289 -33 0
-289 28 0
-289 170 0
-289 131 0
289 -88 33 -28 -170 -131 0
-290 -7 0
-290 -73 0
-290 129 0
-290 -12 0
-290 8 0
290 7 73 -129 12 -8 0
286 287 288 289 290 0
-291 111 0
-291 97 0
-291 31 0
-291 13 0
-291 50 0
291 -111 -97 -31 -13 -50 0
-292 -154 0
-292 15 0
-292 14 0
-292 -94 0
-292 138 0
292 154 -15 -14 94 -138 0
-293 -153 0
-293 -156 0
-293 130 0
-293 57 0
-293 16 0
293 153 156 -130 -57 -16 0
-294 176 0
-294 1 0
-294 -108 0
-294 115 0
-294 147 0
294 -176 -1 108 -115 -147 0
-295 177 0
-295 4 0
-295 30 0
-295 -167 0
-295 153 0
295 -177 -4 -30 167 -153 0
291 292 293 294 295 0
-296 -144 0
-296 -12 0
-296 162 0
-296 -24 0
-296 -54 0
296 144 12 -162 24 54 0
-297 -74 0
-297 156 0
-297 -145 0
-297 164 0
-297 138 0
297 74 -156 145 -164 -138 0
-298 -33 0
-298 -109 0
-298 136 0
-298 -122 0
-298 108 0
298 33 109 -136 122 -108 0
-299 142 0
-299 -121 0
-299 -178 0
-299 -27 0
-299 -116 0
299 -142 121 178 27 116 0
-300 151 0
-300 -52 0
-300 -143 0
-300 -109 0
-300 -43 0
300 -151 52 143 109 43 0
296 297 298 299 300 0
-301 -40 0
-301 -85 0
-301 -131 0
-301 125 0
-301 106 0
301 40 85 131 -125 -106 0
-302 120 0
-302 105 0
-302 -58 0
-302 37 0
-302 -101 0
302 -120 -105 58 -37 101 0
-303 144 0
-303 -121 0
-303 -128 0
-303 48 0
-303 -182 0
303 -144 121 128 -48 182 0
-304 -152 0
-304 117 0
-304 -9 0
-304 70 0
-304 17 0
304 152 -117 9 -70 -17 0
-305 -162 0
-305 -130 0
-305 -92 0
-305 -118 0
-305 -27 0
305 162 130 92 118 27 0
301 302 303 304 305 0
-306 69 0
-306 -100 0
-306 -175 0
-306 115 0
-306 101 0
306 -69 100 175 -115 -101 0
-307 109 0
-307 27 0
-307 39 0
-307 51 0
-307 100 0
307 -109 -27 -39 -51 -100 0
-308 9 0
-308 -14 0
-308 -80 0
-308 181 0
-308 6 0
308 -9 14 80 -181 -6 0
-309 -105 0
-309 126 0
-309 -179 0
-309 37 0
-309 120 0
309 105 -126 179 -37 -120 0
-310 -165 0
-310 -4 0
-310 -41 0
-310 63 0
-310 -57 0
310 165 4 41 -63 57 0
306 307 308 309 310 0
-311 -83 0
-311 -58 0
-311 168 0
-311 -31 0
-311 -143 0
311 83 58 -168 31 143 0
-312 -26 0
-312 80 0
-312 60 0
-312 172 0
-312 -51 0
312 26 -80 -60 -172 51 0
-313 37 0
-313 -49 0
-313 182 0
-313 109 0
-313 -16 0
313 -37 49 -182 -109 16 0
-314 25 0
-314 76 0
-314 -105 0
-314 69 0
-314 -15 0
314 -25 -76 105 -69 15 0
-315 101 0
-315 -127 0
-315 90 0
-315 -50 0
-315 38 0
315 -101 127 -90 50 -38 0
311 312 313 314 315 0
-316 141 0
-316 -25 0
-316 136 0
-316 117 0
-316 -108 0
316 -141 25 -136 -117 108 0
-317 77 0
-317 -103 0
-317 -142 0
-317 -119 0
-317 -40 0
317 -77 103 142 119 40 0
-318 80 0
-318 -15 0
-318 -68 0
-318 -112 0
-318 -118 0
318 -80 15 68 112 118 0
-319 -66 0
-319 148 0
-319 -8 0
-319 -33 0
-319 1 0
319 66 -148 8 33 -1 0
-320 -9 0
-320 -29 0
-320 -109 0
-320 164 0
-320 -45 0
320 9 29 109 -164 45 0
316 317 318 319 320 0
-321 -65 0
-321 -54 0
-321 111 0
-321 154 0
-321 -34 0
321 65 54 -111 -154 34 0
-322 -37 0
-322 -81 0
-322 136 0
-322 96 0
-322 -63 0
322 37 81 -136 -96 63 0
-323 20 0
-323 -98 0
-323 -147 0
-323 -22 0
-323 -165 0
323 -20 98 147 22 165 0
-324 -57 0
-324 21 0
-324 79 0
-324 186 0
-324 19 0
324 57 -21 -79 -186 -19 0
-325 -59 0
-325 -183 0
-325 149 0
-325 -31 0
-325 -1 0
325 59 183 -149 31 1 0
321 322 323 324 325 0
-326 -96 0
-326 -116 0
-326 -174 0
-326 -24 0
-326 4 0
326 96 116 174 24 -4 0
-327 47 0
-327 -130 0
-327 -42 0
-327 -56 0
-327 -73 0
327 -47 130 42 56 73 0
-328 134 0
-328 53 0
-328 133 0
-328 -7 0
-328 123 0
328 -134 -53 -133 7 -123 0
-329 -131 0
-329 156 0
-329 59 0
-329 -46 0
-329 104 0
329 131 -156 -59 46 -104 0
-330 128 0
-330 45 0
-330 -154 0
-330 18 0
-330 92 0
330 -128 -45 154 -18 -92 0
326 327 328 329 330 0
-331 131 0
-331 -31 0
-331 157 0
-331 -147 0
-331 -68 0
331 -131 31 -157 147 68 0
-332 87 0
-332 -112 0
-332 64 0
-332 -74 0
-332 -60 0
332 -87 112 -64 74 60 0
-333 -162 0
-333 -128 0
-333 68 0
-333 -117 0
-333 -3 0
333 162 128 -68 117 3 0
-334 -19 0
-334 101 0
-334 -128 0
-334 74 0
-334 -16 0
334 19 -101 128 -74 16 0
-335 24 0
-335 184 0
-335 -132 0
-335 -188 0
-335 139 0
335 -24 -184 132 188 -139 0
331 332 333 334 335 0
-336 108 0
-336 -50 0
-336 -164 0
-336 -125 0
-336 -34 0
336 -108 50 164 125 34 0
-337 -85 0
-337 34 0
-337 -33 0
-337 -112 0
-337 22 0
337 85 -34 33 112 -22 0
-338 -40 0
-338 186 0
-338 -130 0
-338 157 0
-338 -109 0
338 40 -186 130 -157 109 0
-339 12 0
-339 177 0
-339 -8 0
-339 -112 0
-339 89 0
339 -12 -177 8 112 -89 0
-340 -23 0
-340 100 0
-340 126 0
-340 6 0
-340 91 0
340 23 -100 -126 -6 -91 0
336 337 338 339 340 0
-341 101 0
-341 157 0
-341 168 0
-341 35 0
-341 81 0
341 -101 -157 -168 -35 -81 0
-342 -4 0
-342 -16 0
-342 116 0
-342 -70 0
-342 102 0
342 4 16 -116 70 -102 0
-343 73 0
-343 19 0
-343 64 0
-343 -86 0
-343 120 0
343 -73 -19 -64 86 -120 0
-344 -55 0
-344 19 0
-344 58 0
-344 -143 0
-344 -80 0
344 55 -19 -58 143 80 0
-345 183 0
-345 -151 0
-345 72 0
-345 -99 0
-345 -82 0
345 -183 151 -72 99 82 0
341 342 343 344 345 0
-346 -54 0
-346 -132 0
-346 128 0
-346 51 0
-346 7 0
346 54 132 -128 -51 -7 0
-347 140 0
-347 -135 0
-347 50 0
-347 -120 0
-347 65 0
347 -140 135 -50 120 -65 0
-348 52 0
-348 -79 0
-348 -81 0
-348 -88 0
-348 -116 0
348 -52 79 81 88 116 0
-349 -64 0
-349 150 0
-349 -185 0
-349 132 0
-349 133 0
349 64 -150 185 -132 -133 0
-350 98 0
-350 -162 0
-350 -132 0
-350 -144 0
-350 -81 0
350 -98 162 132 144 81 0
346 347 348 349 350 0
-351 161 0
-351 -89 0
-351 -160 0
-351 163 0
-351 -86 0
351 -161 89 160 -163 86 0
-352 -66 0
-352 160 0
-352 28 0
-352 -71 0
-352 110 0
352 66 -160 -28 71 -110 0
-353 -123 0
-353 174 0
-353 -169 0
-353 -104 0
-353 73 0
353 123 -174 169 104 -73 0
-354 -84 0
-354 -160 0
-354 179 0
-354 178 0
-354 -149 0
354 84 160 -179 -178 149 0
-355 179 0
-355 -19 0
-355 -14 0
-355 174 0
-355 -59 0
355 -179 19 14 -174 59 0
351 352 353 354 355 0
-356 118 0
-356 177 0
-356 67 0
-356 -62 0
-356 -155 0
356 -118 -177 -67 62 155 0
-357 119 0
-357 98 0
-357 41 0
-357 53 0
-357 55 0
357 -119 -98 -41 -53 -55 0
-358 71 0
-358 -101 0
-358 -121 0
-358 -172 0
-358 -99 0
358 -71 101 121 172 99 0
-359 -82 0
-359 37 0
-359 38 0
-359 -167 0
-359 172 0
359 82 -37 -38 167 -172 0
-360 19 0
-360 28 0
-360 7 0
-360 -104 0
-360 63 0
360 -19 -28 -7 104 -63 0
356 357 358 359 360 0
-361 -8 0
-361 184 0
-361 -190 0
-361 -101 0
-361 31 0
361 8 -184 190 101 -31 0
-362 153 0
-362 118 0
-362 -100 0
-362 182 0
-362 60 0
362 -153 -118 100 -182 -60 0
-363 -162 0
-363 -133 0
-363 39 0
-363 -67 0
-363 119 0
363 162 133 -39 67 -119 0
-364 -153 0
-364 -147 0
-364 -24 0
-364 -33 0
-364 149 0
364 153 147 24 33 -149 0
-365 89 0
-365 47 0
-365 -8 0
-365 45 0
-365 -94 0
365 -89 -47 8 -45 94 0
361 362 363 364 365 0
-366 -30 0
-366 125 0
-366 -70 0
-366 -167 0
-366 -59 0
366 30 -125 70 167 59 0
-367 -27 0
-367 -94 0
-367 159 0
-367 -132 0
-367 -72 0
367 27 94 -159 132 72 0
-368 33 0
-368 9 0
-368 -24 0
-368 172 0
-368 2 0
368 -33 -9 24 -172 -2 0
-369 44 0
-369 -95 0
-369 72 0
-369 26 0
-369 -142 0
369 -44 95 -72 -26 142 0
-370 18 0
-370 131 0
-370 29 0
-370 -171 0
-370 -139 0
370 -18 -131 -29 171 139 0
366 367 368 369 370 0
-371 -134 0
-371 -189 0
-371 -91 0
-371 -16 0
-371 35 0
371 134 189 91 16 -35 0
-372 133 0
-372 -34 0
-372 122 0
-372 -102 0
-372 163 0
372 -133 34 -122 102 -163 0
-373 71 0
-373 123 0
-373 -91 0
-373 -152 0
-373 -59 0
373 -71 -123 91 152 59 0
-374 -171 0
-374 141 0
-374 87 0
-374 18 0
-374 83 0
374 171 -141 -87 -18 -83 0
-375 -117 0
-375 -53 0
-375 104 0
-375 2 0
-375 78 0
375 117 53 -104 -2 -78 0
371 372 373 374 375 0
-376 74 0
-376 56 0
-376 30 0
-376 131 0
-376 145 0
376 -74 -56 -30 -131 -145 0
-377 -169 0
-377 -55 0
-377 -32 0
-377 -163 0
-377 -34 0
377 169 55 32 163 34 0
-378 -96 0
-378 -17 0
-378 -171 0
-378 112 0
-378 79 0
378 96 17 171 -112 -79 0
-379 -3 0
-379 -70 0
-379 135 0
-379 75 0
-379 -34 0
379 3 70 -135 -75 34 0
-380 -138 0
-380 71 0
-380 -21 0
-380 -151 0
-380 34 0
380 138 -71 21 151 -34 0
376 377 378 379 380 0
-381 -178 0
-381 126 0
-381 158 0
-381 -153 0
-381 38 0
381 178 -126 -158 153 -38 0
-382 113 0
-382 -12 0
-382 139 0
-382 144 0
-382 -119 0
382 -113 12 -139 -144 119 0
-383 -145 0
-383 -62 0
-383 -165 0
-383 72 0
-383 -5 0
383 145 62 165 -72 5 0
-384 -128 0
-384 133 0
-384 63 0
-384 97 0
-384 -41 0
384 128 -133 -63 -97 41 0
-385 -14 0
-385 105 0
-385 177 0
-385 -139 0
-385 -182 0
385 14 -105 -177 139 182 0
381 382 383 384 385 0
-386 97 0
-386 -85 0
-386 -94 0
-386 -173 0
-386 -7 0
386 -97 85 94 173 7 0
-387 -37 0
-387 -103 0
-387 -161 0
-387 -168 0
-387 -129 0
387 37 103 161 168 129 0
-388 54 0
-388 -124 0
-388 36 0
-388 -33 0
-388 -156 0
388 -54 124 -36 33 156 0
-389 -51 0
-389 -175 0
-389 -106 0
-389 116 0
-389 103 0
389 51 175 106 -116 -103 0
-390 -170 0
-390 -160 0
-390 -126 0
-390 18 0
-390 50 0
390 170 160 126 -18 -50 0
386 387 388 389 390 0
-391 1 0
-391 56 0
-391 150 0
-391 149 0
-391 -132 0
391 -1 -56 -150 -149 132 0
-392 -75 0
-392 50 0
-392 -67 0
-392 177 0
-392 112 0
392 75 -50 67 -177 -112 0
-393 -115 0
-393 -31 0
-393 171 0
-393 125 0
-393 -68 0
393 115 31 -171 -125 68 0
-394 123 0
-394 -160 0
-394 13 0
-394 -180 0
-394 146 0
394 -123 160 -13 180 -146 0
-395 -133 0
-395 99 0
-395 -87 0
-395 52 0
-395 22 0
395 133 -99 87 -52 -22 0
391 392 393 394 395 0
-396 -9 0
-396 119 0
-396 100 0
-396 110 0
-396 106 0
396 9 -119 -100 -110 -106 0
-397 55 0
-397 147 0
-397 2 0
-397 189 0
-397 -123 0
397 -55 -147 -2 -189 123 0
-398 92 0
-398 70 0
-398 -90 0
-398 -102 0
-398 -23 0
398 -92 -70 90 102 23 0
-399 71 0
-399 -164 0
-399 -81 0
-399 -37 0
-399 74 0
399 -71 164 81 37 -74 0
-400 -79 0
-400 124 0
-400 84 0
-400 -80 0
-400 -112 0
400 79 -124 -84 80 112 0
396 397 398 399 400 0
-401 51 0
-401 88 0
-401 131 0
-401 16 0
-401 -6 0
401 -51 -88 -131 -16 6 0
-402 -1 0
-402 -67 0
-402 162 0
-402 152 0
-402 69 0
402 1 67 -162 -152 -69 0
-403 68 0
-403 -162 0
-403 -163 0
-403 43 0
-403 -132 0
403 -68 162 163 -43 132 0
-404 -154 0
-404 102 0
-404 -117 0
-404 76 0
-404 185 0
404 154 -102 117 -76 -185 0
-405 161 0
-405 67 0
-405 83 0
-405 -9 0
-405 -139 0
405 -161 -67 -83 9 139 0
401 402 403 404 405 0
-406 -112 0
-406 -164 0
-406 -110 0
-406 8 0
-406 114 0
406 112 164 110 -8 -114 0
-407 58 0
-407 -111 0
-407 175 0
-407 -38 0
-407 -25 0
407 -58 111 -175 38 25 0
-408 -13 0
-408 -30 0
-408 145 0
-408 107 0
-408 -165 0
408 13 30 -145 -107 165 0
-409 38 0
-409 -87 0
-409 139 0
-409 34 0
-409 15 0
409 -38 87 -139 -34 -15 0
-410 85 0
-410 -2 0
-410 8 0
-410 187 0
-410 27 0
410 -85 2 -8 -187 -27 0
406 407 408 409 410 0
-411 80 0
-411 123 0
-411 -25 0
-411 -85 0
-411 -6 0
411 -80 -123 25 85 6 0
-412 176 0
-412 -10 0
-412 -5 0
-412 -48 0
-412 -31 0
412 -176 10 5 48 31 0
-413 -116 0
-413 52 0
-413 59 0
-413 79 0
-413 -147 0
413 116 -52 -59 -79 147 0
-414 -40 0
-414 94 0
-414 -13 0
-414 -146 0
-414 -163 0
414 40 -94 13 146 163 0
-415 -42 0
-415 178 0
-415 -84 0
-415 -125 0
-415 145 0
415 42 -178 84 125 -145 0
411 412 413 414 415 0
-416 134 0
-416 12 0
-416 98 0
-416 154 0
-416 -23 0
416 -134 -12 -98 -154 23 0
-417 131 0
-417 -113 0
-417 -143 0
-417 -53 0
-417 88 0
417 -131 113 143 53 -88 0
-418 -88 0
-418 -41 0
-418 -126 0
-418 -149 0
-418 -129 0
418 88 41 126 149 129 0
-419 -53 0
-419 43 0
-419 -142 0
-419 98 0
-419 -167 0
419 53 -43 142 -98 167 0
-420 -138 0
-420 117 0
-420 -64 0
-420 158 0
-420 173 0
420 138 -117 64 -158 -173 0
416 417 418 419 420 0
-421 -41 0
-421 124 0
-421 138 0
-421 -92 0
-421 13 0
421 41 -124 -138 92 -13 0
-422 29 0
-422 71 0
-422 -67 0
-422 55 0
-422 24 0
422 -29 -71 67 -55 -24 0
-423 52 0
-423 -189 0
-423 -36 0
-423 -30 0
-423 -133 0
423 -52 189 36 30 133 0
-424 101 0
-424 33 0
-424 175 0
-424 67 0
-424 -185 0
424 -101 -33 -175 -67 185 0
-425 -40 0
-425 -106 0
-425 -81 0
-425 183 0
-425 -45 0
425 40 106 81 -183 45 0
421 422 423 424 425 0
-426 15 0
-426 135 0
-426 134 0
-426 182 0
-426 -80 0
426 -15 -135 -134 -182 80 0
-427 -117 0
-427 170 0
-427 -69 0
-427 -152 0
-427 101 0
427 117 -170 69 152 -101 0
-428 -81 0
-428 36 0
-428 87 0
-428 180 0
-428 3 0
428 81 -36 -87 -180 -3 0
-429 -44 0
-429 -121 0
-429 -6 0
-429 -89 0
-429 -3 0
429 44 121 6 89 3 0
-430 -95 0
-430 -74 0
-430 -96 0
-430 -138 0
-430 -154 0
430 95 74 96 138 154 0
426 427 428 429 430 0
